p cnf 100 30
x 2 -13 21 -23 -25 -27 28 -29 31 -37 39 40 -44 -45 47 -48 -53 55 -56 60 -62 69 70 72 74 76 -77 78 81 -84 -85 87 -88 90 91 95 -97 0
x -1 2 3 -6 -12 13 -14 -15 16 17 -18 19 -23 25 26 28 -29 -31 35 -37 38 39 40 41 -44 -48 51 52 -55 -56 57 -59 -60 62 -66 -67 -69 -71 72 -77 -79 -80 83 84 85 -86 89 90 -93 -97 -98 0
x 2 6 7 -10 -11 -14 -17 20 22 26 27 28 29 -32 -33 -34 36 -38 39 40 -41 43 47 48 54 -56 -57 59 -61 -62 -65 -67 68 -69 70 71 -72 -73 75 76 79 -81 83 86 -89 90 -91 92 -93 -94 95 -98 99 0
x -5 -11 -12 13 15 -16 17 19 20 21 -23 25 -26 27 -29 -30 -32 34 35 36 37 38 39 -40 -41 42 -43 44 -47 49 50 55 56 -57 -58 59 61 64 66 74 78 -81 -82 -83 -87 88 91 92 -93 -94 -95 -96 -99 -100 0
x 3 -7 8 9 -10 13 -15 -16 20 23 -27 29 30 32 36 37 -38 39 40 -47 48 -49 -50 51 -52 55 -56 58 59 60 -62 63 -64 -66 67 -68 69 71 77 -81 82 83 84 88 -89 93 -94 -95 0
x -1 2 -4 7 -8 9 10 -13 -16 -18 21 22 -23 -24 25 27 -28 -29 30 -32 -33 34 -35 -37 -38 39 41 42 43 -44 -45 46 47 -48 49 50 -51 52 53 54 -57 -62 -63 65 71 74 -75 77 79 80 82 84 87 88 89 -93 -94 96 97 -100 0
x 2 -3 4 6 7 -8 -9 10 -12 -13 17 -18 -20 22 -23 24 25 26 27 -28 29 -31 34 40 41 43 44 -51 52 53 54 55 -56 57 58 63 -65 -66 -68 -69 70 -71 -72 73 74 75 -78 81 -83 86 87 88 -89 91 93 -97 -98 99 -100 0
x 1 2 4 7 11 -12 16 17 -18 20 22 -24 -25 28 29 30 -31 32 34 35 36 37 -40 -41 45 46 52 53 -55 -56 59 -60 -62 63 -64 66 67 69 -72 74 76 -77 -78 79 82 -83 85 -87 88 -92 95 -97 99 0
x -1 3 -8 9 10 -11 -12 13 -14 15 18 -19 -23 -25 -26 27 -29 31 -32 -35 -41 -42 -43 47 49 50 51 -52 -53 -56 60 63 64 -65 -66 -77 -80 -82 89 -90 91 -93 94 96 97 -98 99 0
x 6 -7 -13 14 17 19 -21 22 24 -26 -28 -29 -31 -32 -34 -37 -39 -41 -44 -46 47 50 51 -53 54 55 -57 59 60 -61 -62 63 -64 65 67 68 69 70 -71 75 77 -78 80 82 -84 -85 -86 -87 88 -94 98 0
x 4 6 -7 -8 10 14 -17 20 -22 23 26 27 28 29 30 31 32 -33 -34 -36 37 38 39 40 41 42 -43 -44 -46 -48 50 -55 57 -60 -61 62 -63 66 67 -71 -75 76 79 -81 -85 88 -89 -91 -94 -95 -96 97 -98 -100 0
x -1 2 3 7 8 11 12 -13 14 -15 17 -18 -20 -21 -22 -24 25 30 -32 -33 -34 -35 38 -45 46 47 -49 -50 -53 -55 56 57 -58 -59 61 -63 64 -65 -67 71 73 75 -76 81 83 -84 85 88 -89 -90 91 -92 93 -94 96 -97 98 99 -100 0
x -2 4 5 -6 11 14 18 19 20 -21 -22 -24 25 -26 -28 29 30 31 -32 33 -34 35 36 -37 -41 -42 44 45 46 47 48 50 51 -53 -56 58 -59 -62 63 65 -67 70 -73 -77 81 84 85 -87 88 -89 91 -93 95 96 97 98 0
x -1 2 3 4 -6 11 -13 15 18 19 21 22 24 -28 30 33 40 43 44 50 -52 53 -55 -56 57 58 64 66 -67 70 74 -75 77 80 -81 82 -83 -86 -88 -89 -90 -91 -95 98 0
x 1 -9 -11 -12 -13 -14 -16 -17 19 -21 23 -26 -27 30 -34 -35 -36 37 38 39 -42 44 45 -46 48 49 52 -53 54 -55 56 -58 59 -60 61 -69 -72 -74 77 -80 -85 -86 -90 91 -94 -95 -96 0
x 2 3 -5 -9 -10 13 -20 -24 -27 -34 38 39 43 46 51 54 -56 57 58 -59 -61 -62 -63 -64 -67 -68 70 74 -75 78 85 -86 -89 91 -92 -93 97 -98 99 0
x -1 -3 6 -7 -11 12 15 -16 -22 25 27 28 30 31 -33 34 -35 36 -37 -41 -42 45 -46 47 48 57 60 61 -65 67 69 -71 -74 -76 77 -78 79 80 83 -84 86 88 89 93 -94 -95 98 -100 0
x -2 4 6 -9 -12 -13 15 21 22 24 28 -29 -35 -37 -39 -41 43 -44 -46 -48 -49 -55 57 59 -60 61 -62 -64 -65 70 74 77 79 -81 -85 -87 -89 -92 93 94 -100 0
x 3 -5 -6 -10 -12 -14 -15 16 18 19 20 -22 26 -31 32 -34 35 -36 38 -39 -40 -41 -43 44 45 47 48 -53 -54 58 59 60 -61 -62 63 -64 -66 67 68 -69 70 71 -73 -75 77 -78 -80 81 83 85 -86 91 92 93 95 98 99 100 0
x -4 5 -6 8 -9 -11 -12 13 -14 -15 -16 -17 -18 -23 28 31 34 38 39 -41 -46 -47 -55 56 -57 -59 -61 63 -66 68 -70 -71 -72 73 74 75 77 -78 81 82 -83 -86 -88 89 -91 -93 -95 -96 -98 100 0
x 1 -2 3 -6 -8 -10 -11 -13 -16 21 29 -30 -32 -34 35 -36 42 -44 -45 51 52 -53 54 55 -56 -59 -64 -65 -69 73 74 76 -77 -78 -80 -83 84 -86 -89 90 -92 94 96 -97 98 -99 0
x 1 4 7 9 -12 -14 -17 22 -29 30 32 33 34 -35 39 -40 42 -46 -47 -50 -52 -53 -56 -58 -60 61 62 66 -67 68 -69 71 73 74 75 79 80 -81 -83 84 86 -92 -94 95 96 -99 0
x 1 -2 -3 7 -10 -11 -12 -13 -14 -18 -20 -26 27 -28 30 31 38 -42 44 -46 -47 -48 -50 51 54 -55 -58 59 -60 -62 -65 66 -67 -69 -70 -71 -73 -75 76 -77 -78 79 86 -87 89 -93 96 -99 100 0
x -2 -3 4 7 8 -10 -11 12 13 14 15 18 -19 21 22 26 -32 34 -35 37 -38 39 -43 44 -48 -49 -53 -54 -56 57 60 62 65 -76 78 -79 -84 -85 -89 91 -92 94 -95 -96 97 98 99 0
x -4 -5 6 -9 10 -15 -17 -19 -21 -22 25 -27 -28 -29 30 -32 -33 38 40 -42 43 -46 47 48 51 -52 54 55 56 58 59 -61 -64 -66 67 -68 69 70 71 73 -77 83 86 -89 -90 -98 0
x 3 4 -9 10 -15 16 -18 -21 25 26 -27 28 -30 -32 34 36 37 -40 42 43 45 46 47 48 49 50 -51 -52 -56 -59 61 62 -63 64 67 -68 -69 -71 -72 -74 -77 78 79 81 -83 -87 -89 90 -91 -96 0
x -1 2 -4 6 -7 -8 9 -10 11 -12 14 -18 20 -21 -23 26 35 36 37 -38 -39 41 42 44 48 -50 -55 -56 58 61 -63 -66 -67 -69 71 74 -75 -76 -79 -80 -81 83 85 -86 -87 -91 -92 -93 99 -100 0
x -1 2 4 -5 7 8 -13 15 -18 22 -23 -24 -28 -31 36 37 38 -39 -42 -43 -44 46 47 48 49 -50 53 -56 -57 58 -60 61 -64 65 68 69 -71 73 -76 77 -81 82 83 -84 -85 -86 -88 89 90 -91 -94 -95 100 0
x 1 -4 5 6 7 -8 -9 -12 -14 18 20 -23 25 -28 -31 33 35 36 39 40 -41 42 44 -46 47 -48 49 -50 -51 52 54 55 -56 57 -59 60 -62 -65 -67 68 -69 -70 -71 72 -74 -75 76 79 81 82 -83 -85 88 89 -92 -96 97 -98 0
x -1 -2 -3 4 6 -7 -8 -9 -16 18 19 20 -21 -22 23 -27 -28 -33 35 -36 -38 40 42 -43 45 -46 -47 48 -60 -66 67 71 -72 -76 -80 81 -82 -84 -85 91 -95 96 98 0
g -40